(set-info :smt-lib-version 2.6)
(set-logic QF_SLIA)
(set-info :source |
Generated by: Denghang Hu
Generated on: 2023-03-29
Application: Evaluate string solvers
Description: The instance consists of:
(1) a regular membership predicate from the real world
(2) a regular membership predicate to sanitize danger letters in javascript such as <,>,&,",'
(3) a lower bound for string length
Target solver: Ostrich, Z3str3, CVC5
|)
(set-info :license "https://creativecommons.org/licenses/by/4.0/")
(set-info :category "industrial")
(set-info :status unknown)
        ;test regex <input type="text" class="k-fill" ng-pattern="/((^[1]{1}[9]{1}[9]{1}\d{1})|([2-9]{1}\d{3}))\/([0]{1}[1-9]{1}|[1]{1}[0-2]{1})\/([0]{1}[1-9]{1}|[1,2]{1}\d{1}|[3]{1}[0,1]{1})$/" ng-model="Request.ExpDate" id="ExceptedDate" name="ExceptedDate" ng-readonly="true" required />
(declare-const X String)
(assert (str.in_re X (re.++ (re.++ (str.to_re "<") (re.++ (str.to_re "i") (re.++ (str.to_re "n") (re.++ (str.to_re "p") (re.++ (str.to_re "u") (re.++ (str.to_re "t") (re.++ (str.to_re " ") (re.++ (str.to_re "t") (re.++ (str.to_re "y") (re.++ (str.to_re "p") (re.++ (str.to_re "e") (re.++ (str.to_re "=") (re.++ (str.to_re "\u{22}") (re.++ (str.to_re "t") (re.++ (str.to_re "e") (re.++ (str.to_re "x") (re.++ (str.to_re "t") (re.++ (str.to_re "\u{22}") (re.++ (str.to_re " ") (re.++ (str.to_re "c") (re.++ (str.to_re "l") (re.++ (str.to_re "a") (re.++ (str.to_re "s") (re.++ (str.to_re "s") (re.++ (str.to_re "=") (re.++ (str.to_re "\u{22}") (re.++ (str.to_re "k") (re.++ (str.to_re "-") (re.++ (str.to_re "f") (re.++ (str.to_re "i") (re.++ (str.to_re "l") (re.++ (str.to_re "l") (re.++ (str.to_re "\u{22}") (re.++ (str.to_re " ") (re.++ (str.to_re "n") (re.++ (str.to_re "g") (re.++ (str.to_re "-") (re.++ (str.to_re "p") (re.++ (str.to_re "a") (re.++ (str.to_re "t") (re.++ (str.to_re "t") (re.++ (str.to_re "e") (re.++ (str.to_re "r") (re.++ (str.to_re "n") (re.++ (str.to_re "=") (re.++ (str.to_re "\u{22}") (re.++ (str.to_re "/") (re.++ (re.union (re.++ (str.to_re "") (re.++ ((_ re.loop 1 1) (str.to_re "1")) (re.++ ((_ re.loop 1 1) (str.to_re "9")) (re.++ ((_ re.loop 1 1) (str.to_re "9")) ((_ re.loop 1 1) (re.range "0" "9")))))) (re.++ ((_ re.loop 1 1) (re.range "2" "9")) ((_ re.loop 3 3) (re.range "0" "9")))) (re.++ (str.to_re "/") (re.++ (re.union (re.++ ((_ re.loop 1 1) (str.to_re "0")) ((_ re.loop 1 1) (re.range "1" "9"))) (re.++ ((_ re.loop 1 1) (str.to_re "1")) ((_ re.loop 1 1) (re.range "0" "2")))) (re.++ (str.to_re "/") (re.union (re.union (re.++ ((_ re.loop 1 1) (str.to_re "0")) ((_ re.loop 1 1) (re.range "1" "9"))) (re.++ ((_ re.loop 1 1) (re.union (str.to_re "1") (re.union (str.to_re ",") (str.to_re "2")))) ((_ re.loop 1 1) (re.range "0" "9")))) (re.++ ((_ re.loop 1 1) (str.to_re "3")) ((_ re.loop 1 1) (re.union (str.to_re "0") (re.union (str.to_re ",") (str.to_re "1"))))))))))))))))))))))))))))))))))))))))))))))))))))))))) (re.++ (str.to_re "") (re.++ (str.to_re "/") (re.++ (str.to_re "\u{22}") (re.++ (str.to_re " ") (re.++ (str.to_re "n") (re.++ (str.to_re "g") (re.++ (str.to_re "-") (re.++ (str.to_re "m") (re.++ (str.to_re "o") (re.++ (str.to_re "d") (re.++ (str.to_re "e") (re.++ (str.to_re "l") (re.++ (str.to_re "=") (re.++ (str.to_re "\u{22}") (re.++ (str.to_re "R") (re.++ (str.to_re "e") (re.++ (str.to_re "q") (re.++ (str.to_re "u") (re.++ (str.to_re "e") (re.++ (str.to_re "s") (re.++ (str.to_re "t") (re.++ (re.diff re.allchar (str.to_re "\n")) (re.++ (str.to_re "E") (re.++ (str.to_re "x") (re.++ (str.to_re "p") (re.++ (str.to_re "D") (re.++ (str.to_re "a") (re.++ (str.to_re "t") (re.++ (str.to_re "e") (re.++ (str.to_re "\u{22}") (re.++ (str.to_re " ") (re.++ (str.to_re "i") (re.++ (str.to_re "d") (re.++ (str.to_re "=") (re.++ (str.to_re "\u{22}") (re.++ (str.to_re "E") (re.++ (str.to_re "x") (re.++ (str.to_re "c") (re.++ (str.to_re "e") (re.++ (str.to_re "p") (re.++ (str.to_re "t") (re.++ (str.to_re "e") (re.++ (str.to_re "d") (re.++ (str.to_re "D") (re.++ (str.to_re "a") (re.++ (str.to_re "t") (re.++ (str.to_re "e") (re.++ (str.to_re "\u{22}") (re.++ (str.to_re " ") (re.++ (str.to_re "n") (re.++ (str.to_re "a") (re.++ (str.to_re "m") (re.++ (str.to_re "e") (re.++ (str.to_re "=") (re.++ (str.to_re "\u{22}") (re.++ (str.to_re "E") (re.++ (str.to_re "x") (re.++ (str.to_re "c") (re.++ (str.to_re "e") (re.++ (str.to_re "p") (re.++ (str.to_re "t") (re.++ (str.to_re "e") (re.++ (str.to_re "d") (re.++ (str.to_re "D") (re.++ (str.to_re "a") (re.++ (str.to_re "t") (re.++ (str.to_re "e") (re.++ (str.to_re "\u{22}") (re.++ (str.to_re " ") (re.++ (str.to_re "n") (re.++ (str.to_re "g") (re.++ (str.to_re "-") (re.++ (str.to_re "r") (re.++ (str.to_re "e") (re.++ (str.to_re "a") (re.++ (str.to_re "d") (re.++ (str.to_re "o") (re.++ (str.to_re "n") (re.++ (str.to_re "l") (re.++ (str.to_re "y") (re.++ (str.to_re "=") (re.++ (str.to_re "\u{22}") (re.++ (str.to_re "t") (re.++ (str.to_re "r") (re.++ (str.to_re "u") (re.++ (str.to_re "e") (re.++ (str.to_re "\u{22}") (re.++ (str.to_re " ") (re.++ (str.to_re "r") (re.++ (str.to_re "e") (re.++ (str.to_re "q") (re.++ (str.to_re "u") (re.++ (str.to_re "i") (re.++ (str.to_re "r") (re.++ (str.to_re "e") (re.++ (str.to_re "d") (re.++ (str.to_re " ") (re.++ (str.to_re "/") (str.to_re ">"))))))))))))))))))))))))))))))))))))))))))))))))))))))))))))))))))))))))))))))))))))))))))))))))))))))
; sanitize danger characters:  < > ' " &
(assert (not (str.in_re X (re.++ re.all (re.union (str.to_re "\u{3c}") (str.to_re "\u{3e}") (str.to_re "\u{27}") (str.to_re "\u{22}") (str.to_re "\u{26}")) re.all))))
(assert (< 20 (str.len X)))
(check-sat)
(exit)
